modeles/4_39.lp
minimize
obj: 1 x_1_ + 1 x_2_ + 1 x_3_ + 1 x_4_
subject to
c1_1: 1 t_1,1_ - 1 y_1,1_ <= 0
c2_1: 1 t_1,2_ - 1 y_1,1_ - 1 y_1,2_ <= 0
c3_1: 1 t_1,3_ - 1 y_1,2_ - 1 y_1,3_ <= 0
c4_1: 1 t_1,4_ - 1 y_1,3_ - 1 y_1,4_ <= 0
c5_1: 1 t_1,5_ - 1 y_1,4_ - 1 y_1,5_ <= 0
c6_1: 1 t_1,6_ - 1 y_1,5_ - 1 y_1,6_ <= 0
c7_1: 1 t_1,7_ - 1 y_1,6_ - 1 y_1,7_ <= 0
c8_1: 1 t_1,8_ - 1 y_1,7_ - 1 y_1,8_ <= 0
c9_1: 1 t_1,9_ - 1 y_1,8_ - 1 y_1,9_ <= 0
c10_1: 1 t_1,10_ - 1 y_1,9_ - 1 y_1,10_ <= 0
c11_1: 1 t_1,11_ - 1 y_1,10_ - 1 y_1,11_ <= 0
c12_1: 1 t_1,12_ - 1 y_1,11_ - 1 y_1,12_ <= 0
c13: 1 t_1,13_ - 1 y_1,12_ - 1 y_1,13_ <= 0
c14: 1 t_1,14_ - 1 y_1,13_ - 1 y_1,14_ <= 0
c15: 1 t_1,15_ - 1 y_1,14_ - 1 y_1,15_ <= 0
c16: 1 t_1,16_ - 1 y_1,15_ - 1 y_1,16_ <= 0
c17: 1 t_1,17_ - 1 y_1,16_ - 1 y_1,17_ <= 0
c18: 1 t_1,18_ - 1 y_1,17_ - 1 y_1,18_ <= 0
c19: 1 t_1,19_ - 1 y_1,18_ - 1 y_1,19_ <= 0
c20: 1 t_1,20_ - 1 y_1,19_ - 1 y_1,20_ <= 0
c21: 1 t_1,21_ - 1 y_1,20_ - 1 y_1,21_ <= 0
c22: 1 t_1,22_ - 1 y_1,21_ - 1 y_1,22_ <= 0
c23: 1 t_1,23_ - 1 y_1,22_ - 1 y_1,23_ <= 0
c24: 1 t_1,24_ - 1 y_1,23_ - 1 y_1,24_ <= 0
c25: 1 t_1,25_ - 1 y_1,24_ - 1 y_1,25_ <= 0
c26: 1 t_1,26_ - 1 y_1,25_ - 1 y_1,26_ <= 0
c27: 1 t_1,27_ - 1 y_1,26_ - 1 y_1,27_ <= 0
c28: 1 t_1,28_ - 1 y_1,27_ - 1 y_1,28_ <= 0
c29: 1 t_1,29_ - 1 y_1,28_ - 1 y_1,29_ <= 0
c30: 1 t_1,30_ - 1 y_1,29_ - 1 y_1,30_ <= 0
c31: 1 t_1,31_ - 1 y_1,30_ - 1 y_1,31_ <= 0
c32: 1 t_1,32_ - 1 y_1,31_ - 1 y_1,32_ <= 0
c33: 1 t_1,33_ - 1 y_1,32_ - 1 y_1,33_ <= 0
c34: 1 t_1,34_ - 1 y_1,33_ - 1 y_1,34_ <= 0
c35: 1 t_1,35_ - 1 y_1,34_ - 1 y_1,35_ <= 0
c36: 1 t_1,36_ - 1 y_1,35_ - 1 y_1,36_ <= 0
c37: 1 t_1,37_ - 1 y_1,36_ - 1 y_1,37_ <= 0
c38: 1 t_1,38_ - 1 y_1,37_ - 1 y_1,38_ <= 0
c39: 1 t_1,39_ - 1 y_1,38_ - 1 y_1,39_ <= 0
c40: 1 t_1,40_ - 1 y_1,39_ <= 0
c41: 1 t_2,1_ - 1 y_2,1_ <= 0
c42: 1 t_2,2_ - 1 y_2,1_ - 1 y_2,2_ <= 0
c43: 1 t_2,3_ - 1 y_2,2_ - 1 y_2,3_ <= 0
c44: 1 t_2,4_ - 1 y_2,3_ - 1 y_2,4_ <= 0
c45: 1 t_2,5_ - 1 y_2,4_ - 1 y_2,5_ <= 0
c46: 1 t_2,6_ - 1 y_2,5_ - 1 y_2,6_ <= 0
c47: 1 t_2,7_ - 1 y_2,6_ - 1 y_2,7_ <= 0
c48: 1 t_2,8_ - 1 y_2,7_ - 1 y_2,8_ <= 0
c49: 1 t_2,9_ - 1 y_2,8_ - 1 y_2,9_ <= 0
c50: 1 t_2,10_ - 1 y_2,9_ - 1 y_2,10_ <= 0
c51: 1 t_2,11_ - 1 y_2,10_ - 1 y_2,11_ <= 0
c52: 1 t_2,12_ - 1 y_2,11_ - 1 y_2,12_ <= 0
c53: 1 t_2,13_ - 1 y_2,12_ - 1 y_2,13_ <= 0
c54: 1 t_2,14_ - 1 y_2,13_ - 1 y_2,14_ <= 0
c55: 1 t_2,15_ - 1 y_2,14_ - 1 y_2,15_ <= 0
c56: 1 t_2,16_ - 1 y_2,15_ - 1 y_2,16_ <= 0
c57: 1 t_2,17_ - 1 y_2,16_ - 1 y_2,17_ <= 0
c58: 1 t_2,18_ - 1 y_2,17_ - 1 y_2,18_ <= 0
c59: 1 t_2,19_ - 1 y_2,18_ - 1 y_2,19_ <= 0
c60: 1 t_2,20_ - 1 y_2,19_ - 1 y_2,20_ <= 0
c61: 1 t_2,21_ - 1 y_2,20_ - 1 y_2,21_ <= 0
c62: 1 t_2,22_ - 1 y_2,21_ - 1 y_2,22_ <= 0
c63: 1 t_2,23_ - 1 y_2,22_ - 1 y_2,23_ <= 0
c64: 1 t_2,24_ - 1 y_2,23_ - 1 y_2,24_ <= 0
c65: 1 t_2,25_ - 1 y_2,24_ - 1 y_2,25_ <= 0
c66: 1 t_2,26_ - 1 y_2,25_ - 1 y_2,26_ <= 0
c67: 1 t_2,27_ - 1 y_2,26_ - 1 y_2,27_ <= 0
c68: 1 t_2,28_ - 1 y_2,27_ - 1 y_2,28_ <= 0
c69: 1 t_2,29_ - 1 y_2,28_ - 1 y_2,29_ <= 0
c70: 1 t_2,30_ - 1 y_2,29_ - 1 y_2,30_ <= 0
c71: 1 t_2,31_ - 1 y_2,30_ - 1 y_2,31_ <= 0
c72: 1 t_2,32_ - 1 y_2,31_ - 1 y_2,32_ <= 0
c73: 1 t_2,33_ - 1 y_2,32_ - 1 y_2,33_ <= 0
c74: 1 t_2,34_ - 1 y_2,33_ - 1 y_2,34_ <= 0
c75: 1 t_2,35_ - 1 y_2,34_ - 1 y_2,35_ <= 0
c76: 1 t_2,36_ - 1 y_2,35_ - 1 y_2,36_ <= 0
c77: 1 t_2,37_ - 1 y_2,36_ - 1 y_2,37_ <= 0
c78: 1 t_2,38_ - 1 y_2,37_ - 1 y_2,38_ <= 0
c79: 1 t_2,39_ - 1 y_2,38_ - 1 y_2,39_ <= 0
c80: 1 t_2,40_ - 1 y_2,39_ <= 0
c81: 1 t_3,1_ - 1 y_3,1_ <= 0
c82: 1 t_3,2_ - 1 y_3,1_ - 1 y_3,2_ <= 0
c83: 1 t_3,3_ - 1 y_3,2_ - 1 y_3,3_ <= 0
c84: 1 t_3,4_ - 1 y_3,3_ - 1 y_3,4_ <= 0
c85: 1 t_3,5_ - 1 y_3,4_ - 1 y_3,5_ <= 0
c86: 1 t_3,6_ - 1 y_3,5_ - 1 y_3,6_ <= 0
c87: 1 t_3,7_ - 1 y_3,6_ - 1 y_3,7_ <= 0
c88: 1 t_3,8_ - 1 y_3,7_ - 1 y_3,8_ <= 0
c89: 1 t_3,9_ - 1 y_3,8_ - 1 y_3,9_ <= 0
c90: 1 t_3,10_ - 1 y_3,9_ - 1 y_3,10_ <= 0
c91: 1 t_3,11_ - 1 y_3,10_ - 1 y_3,11_ <= 0
c92: 1 t_3,12_ - 1 y_3,11_ - 1 y_3,12_ <= 0
c93: 1 t_3,13_ - 1 y_3,12_ - 1 y_3,13_ <= 0
c94: 1 t_3,14_ - 1 y_3,13_ - 1 y_3,14_ <= 0
c95: 1 t_3,15_ - 1 y_3,14_ - 1 y_3,15_ <= 0
c96: 1 t_3,16_ - 1 y_3,15_ - 1 y_3,16_ <= 0
c97: 1 t_3,17_ - 1 y_3,16_ - 1 y_3,17_ <= 0
c98: 1 t_3,18_ - 1 y_3,17_ - 1 y_3,18_ <= 0
c99: 1 t_3,19_ - 1 y_3,18_ - 1 y_3,19_ <= 0
c100: 1 t_3,20_ - 1 y_3,19_ - 1 y_3,20_ <= 0
c101: 1 t_3,21_ - 1 y_3,20_ - 1 y_3,21_ <= 0
c102: 1 t_3,22_ - 1 y_3,21_ - 1 y_3,22_ <= 0
c103: 1 t_3,23_ - 1 y_3,22_ - 1 y_3,23_ <= 0
c104: 1 t_3,24_ - 1 y_3,23_ - 1 y_3,24_ <= 0
c105: 1 t_3,25_ - 1 y_3,24_ - 1 y_3,25_ <= 0
c106: 1 t_3,26_ - 1 y_3,25_ - 1 y_3,26_ <= 0
c107: 1 t_3,27_ - 1 y_3,26_ - 1 y_3,27_ <= 0
c108: 1 t_3,28_ - 1 y_3,27_ - 1 y_3,28_ <= 0
c109: 1 t_3,29_ - 1 y_3,28_ - 1 y_3,29_ <= 0
c110: 1 t_3,30_ - 1 y_3,29_ - 1 y_3,30_ <= 0
c111: 1 t_3,31_ - 1 y_3,30_ - 1 y_3,31_ <= 0
c112: 1 t_3,32_ - 1 y_3,31_ - 1 y_3,32_ <= 0
c113: 1 t_3,33_ - 1 y_3,32_ - 1 y_3,33_ <= 0
c114: 1 t_3,34_ - 1 y_3,33_ - 1 y_3,34_ <= 0
c115: 1 t_3,35_ - 1 y_3,34_ - 1 y_3,35_ <= 0
c116: 1 t_3,36_ - 1 y_3,35_ - 1 y_3,36_ <= 0
c117: 1 t_3,37_ - 1 y_3,36_ - 1 y_3,37_ <= 0
c118: 1 t_3,38_ - 1 y_3,37_ - 1 y_3,38_ <= 0
c119: 1 t_3,39_ - 1 y_3,38_ - 1 y_3,39_ <= 0
c120: 1 t_3,40_ - 1 y_3,39_ <= 0
c121: 1 t_4,1_ - 1 y_4,1_ <= 0
c122: 1 t_4,2_ - 1 y_4,1_ - 1 y_4,2_ <= 0
c123: 1 t_4,3_ - 1 y_4,2_ - 1 y_4,3_ <= 0
c124: 1 t_4,4_ - 1 y_4,3_ - 1 y_4,4_ <= 0
c125: 1 t_4,5_ - 1 y_4,4_ - 1 y_4,5_ <= 0
c126: 1 t_4,6_ - 1 y_4,5_ - 1 y_4,6_ <= 0
c127: 1 t_4,7_ - 1 y_4,6_ - 1 y_4,7_ <= 0
c128: 1 t_4,8_ - 1 y_4,7_ - 1 y_4,8_ <= 0
c129: 1 t_4,9_ - 1 y_4,8_ - 1 y_4,9_ <= 0
c130: 1 t_4,10_ - 1 y_4,9_ - 1 y_4,10_ <= 0
c131: 1 t_4,11_ - 1 y_4,10_ - 1 y_4,11_ <= 0
c132: 1 t_4,12_ - 1 y_4,11_ - 1 y_4,12_ <= 0
c133: 1 t_4,13_ - 1 y_4,12_ - 1 y_4,13_ <= 0
c134: 1 t_4,14_ - 1 y_4,13_ - 1 y_4,14_ <= 0
c135: 1 t_4,15_ - 1 y_4,14_ - 1 y_4,15_ <= 0
c136: 1 t_4,16_ - 1 y_4,15_ - 1 y_4,16_ <= 0
c137: 1 t_4,17_ - 1 y_4,16_ - 1 y_4,17_ <= 0
c138: 1 t_4,18_ - 1 y_4,17_ - 1 y_4,18_ <= 0
c139: 1 t_4,19_ - 1 y_4,18_ - 1 y_4,19_ <= 0
c140: 1 t_4,20_ - 1 y_4,19_ - 1 y_4,20_ <= 0
c141: 1 t_4,21_ - 1 y_4,20_ - 1 y_4,21_ <= 0
c142: 1 t_4,22_ - 1 y_4,21_ - 1 y_4,22_ <= 0
c143: 1 t_4,23_ - 1 y_4,22_ - 1 y_4,23_ <= 0
c144: 1 t_4,24_ - 1 y_4,23_ - 1 y_4,24_ <= 0
c145: 1 t_4,25_ - 1 y_4,24_ - 1 y_4,25_ <= 0
c146: 1 t_4,26_ - 1 y_4,25_ - 1 y_4,26_ <= 0
c147: 1 t_4,27_ - 1 y_4,26_ - 1 y_4,27_ <= 0
c148: 1 t_4,28_ - 1 y_4,27_ - 1 y_4,28_ <= 0
c149: 1 t_4,29_ - 1 y_4,28_ - 1 y_4,29_ <= 0
c150: 1 t_4,30_ - 1 y_4,29_ - 1 y_4,30_ <= 0
c151: 1 t_4,31_ - 1 y_4,30_ - 1 y_4,31_ <= 0
c152: 1 t_4,32_ - 1 y_4,31_ - 1 y_4,32_ <= 0
c153: 1 t_4,33_ - 1 y_4,32_ - 1 y_4,33_ <= 0
c154: 1 t_4,34_ - 1 y_4,33_ - 1 y_4,34_ <= 0
c155: 1 t_4,35_ - 1 y_4,34_ - 1 y_4,35_ <= 0
c156: 1 t_4,36_ - 1 y_4,35_ - 1 y_4,36_ <= 0
c157: 1 t_4,37_ - 1 y_4,36_ - 1 y_4,37_ <= 0
c158: 1 t_4,38_ - 1 y_4,37_ - 1 y_4,38_ <= 0
c159: 1 t_4,39_ - 1 y_4,38_ - 1 y_4,39_ <= 0
c160: 1 t_4,40_ - 1 y_4,39_ <= 0
c161: 4 t_1,1_ + 4 t_2,1_ + 4 t_3,1_ + 4 t_4,1_ + 3.6002629848783694 t_1,2_ + 3.6002629848783694 t_2,2_ + 3.6002629848783694 t_3,2_ + 3.6002629848783694 t_4,2_ + 3.2215647600262978 t_1,3_ + 3.2215647600262978 t_2,3_ + 3.2215647600262978 t_3,3_ + 3.2215647600262978 t_4,3_ + 2.863905325443788 t_1,4_ + 2.863905325443788 t_2,4_ + 2.863905325443788 t_3,4_ + 2.863905325443788 t_4,4_ + 2.527284681130835 t_1,5_ + 2.527284681130835 t_2,5_ + 2.527284681130835 t_3,5_ + 2.527284681130835 t_4,5_ + 2.211702827087443 t_1,6_ + 2.211702827087443 t_2,6_ + 2.211702827087443 t_3,6_ + 2.211702827087443 t_4,6_ + 1.9171597633136093 t_1,7_ + 1.9171597633136093 t_2,7_ + 1.9171597633136093 t_3,7_ + 1.9171597633136093 t_4,7_ + 1.6436554898093356 t_1,8_ + 1.6436554898093356 t_2,8_ + 1.6436554898093356 t_3,8_ + 1.6436554898093356 t_4,8_ + 1.3911900065746226 t_1,9_ + 1.3911900065746226 t_2,9_ + 1.3911900065746226 t_3,9_ + 1.3911900065746226 t_4,9_ + 1.159763313609467 t_1,10_ + 1.159763313609467 t_2,10_ + 1.159763313609467 t_3,10_ + 1.159763313609467 t_4,10_ + 0.9493754109138727 t_1,11_ + 0.9493754109138727 t_2,11_ + 0.9493754109138727 t_3,11_ + 0.9493754109138727 t_4,11_ + 0.760026298487837 t_1,12_ + 0.760026298487837 t_2,12_ + 0.760026298487837 t_3,12_ + 0.760026298487837 t_4,12_ + 0.5917159763313609 t_1,13_ + 0.5917159763313609 t_2,13_ + 0.5917159763313609 t_3,13_ + 0.5917159763313609 t_4,13_ + 0.4444444444444447 t_1,14_ + 0.4444444444444447 t_2,14_ + 0.4444444444444447 t_3,14_ + 0.4444444444444447 t_4,14_ + 0.31821170282708733 t_1,15_ + 0.31821170282708733 t_2,15_ + 0.31821170282708733 t_3,15_ + 0.31821170282708733 t_4,15_ + 0.21301775147928997 t_1,16_ + 0.21301775147928997 t_2,16_ + 0.21301775147928997 t_3,16_ + 0.21301775147928997 t_4,16_ + 0.12886259040105197 t_1,17_ + 0.12886259040105197 t_2,17_ + 0.12886259040105197 t_3,17_ + 0.12886259040105197 t_4,17_ + 0.06574621959237342 t_1,18_ + 0.06574621959237342 t_2,18_ + 0.06574621959237342 t_3,18_ + 0.06574621959237342 t_4,18_ + 0.023668639053254406 t_1,19_ + 0.023668639053254406 t_2,19_ + 0.023668639053254406 t_3,19_ + 0.023668639053254406 t_4,19_ + 0.0026298487836949303 t_1,20_ + 0.0026298487836949303 t_2,20_ + 0.0026298487836949303 t_3,20_ + 0.0026298487836949303 t_4,20_ + 0.002629848783694919 t_1,21_ + 0.002629848783694919 t_2,21_ + 0.002629848783694919 t_3,21_ + 0.002629848783694919 t_4,21_ + 0.023668639053254406 t_1,22_ + 0.023668639053254406 t_2,22_ + 0.023668639053254406 t_3,22_ + 0.023668639053254406 t_4,22_ + 0.06574621959237342 t_1,23_ + 0.06574621959237342 t_2,23_ + 0.06574621959237342 t_3,23_ + 0.06574621959237342 t_4,23_ + 0.12886259040105197 t_1,24_ + 0.12886259040105197 t_2,24_ + 0.12886259040105197 t_3,24_ + 0.12886259040105197 t_4,24_ + 0.21301775147929006 t_1,25_ + 0.21301775147929006 t_2,25_ + 0.21301775147929006 t_3,25_ + 0.21301775147929006 t_4,25_ + 0.31821170282708766 t_1,26_ + 0.31821170282708766 t_2,26_ + 0.31821170282708766 t_3,26_ + 0.31821170282708766 t_4,26_ + 0.44444444444444425 t_1,27_ + 0.44444444444444425 t_2,27_ + 0.44444444444444425 t_3,27_ + 0.44444444444444425 t_4,27_ + 0.5917159763313609 t_1,28_ + 0.5917159763313609 t_2,28_ + 0.5917159763313609 t_3,28_ + 0.5917159763313609 t_4,28_ + 0.760026298487837 t_1,29_ + 0.760026298487837 t_2,29_ + 0.760026298487837 t_3,29_ + 0.760026298487837 t_4,29_ + 0.9493754109138727 t_1,30_ + 0.9493754109138727 t_2,30_ + 0.9493754109138727 t_3,30_ + 0.9493754109138727 t_4,30_ + 1.1597633136094678 t_1,31_ + 1.1597633136094678 t_2,31_ + 1.1597633136094678 t_3,31_ + 1.1597633136094678 t_4,31_ + 1.3911900065746214 t_1,32_ + 1.3911900065746214 t_2,32_ + 1.3911900065746214 t_3,32_ + 1.3911900065746214 t_4,32_ + 1.6436554898093356 t_1,33_ + 1.6436554898093356 t_2,33_ + 1.6436554898093356 t_3,33_ + 1.6436554898093356 t_4,33_ + 1.9171597633136093 t_1,34_ + 1.9171597633136093 t_2,34_ + 1.9171597633136093 t_3,34_ + 1.9171597633136093 t_4,34_ + 2.211702827087443 t_1,35_ + 2.211702827087443 t_2,35_ + 2.211702827087443 t_3,35_ + 2.211702827087443 t_4,35_ + 2.527284681130835 t_1,36_ + 2.527284681130835 t_2,36_ + 2.527284681130835 t_3,36_ + 2.527284681130835 t_4,36_ + 2.863905325443788 t_1,37_ + 2.863905325443788 t_2,37_ + 2.863905325443788 t_3,37_ + 2.863905325443788 t_4,37_ + 3.2215647600262978 t_1,38_ + 3.2215647600262978 t_2,38_ + 3.2215647600262978 t_3,38_ + 3.2215647600262978 t_4,38_ + 3.6002629848783694 t_1,39_ + 3.6002629848783694 t_2,39_ + 3.6002629848783694 t_3,39_ + 3.6002629848783694 t_4,39_ + 4 t_1,40_ + 4 t_2,40_ + 4 t_3,40_ + 4 t_4,40_ <= 1
c1: 1 y_1,1_ + 1 y_1,2_ + 1 y_1,3_ + 1 y_1,4_ + 1 y_1,5_ + 1 y_1,6_ + 1 y_1,7_ + 1 y_1,8_ + 1 y_1,9_ + 1 y_1,10_ + 1 y_1,11_ + 1 y_1,12_ + 1 y_1,13_ + 1 y_1,14_ + 1 y_1,15_ + 1 y_1,16_ + 1 y_1,17_ + 1 y_1,18_ + 1 y_1,19_ + 1 y_1,20_ + 1 y_1,21_ + 1 y_1,22_ + 1 y_1,23_ + 1 y_1,24_ + 1 y_1,25_ + 1 y_1,26_ + 1 y_1,27_ + 1 y_1,28_ + 1 y_1,29_ + 1 y_1,30_ + 1 y_1,31_ + 1 y_1,32_ + 1 y_1,33_ + 1 y_1,34_ + 1 y_1,35_ + 1 y_1,36_ + 1 y_1,37_ + 1 y_1,38_ + 1 y_1,39_ = 1
c2: 1 t_1,1_ + 1 t_1,2_ + 1 t_1,3_ + 1 t_1,4_ + 1 t_1,5_ + 1 t_1,6_ + 1 t_1,7_ + 1 t_1,8_ + 1 t_1,9_ + 1 t_1,10_ + 1 t_1,11_ + 1 t_1,12_ + 1 t_1,13_ + 1 t_1,14_ + 1 t_1,15_ + 1 t_1,16_ + 1 t_1,17_ + 1 t_1,18_ + 1 t_1,19_ + 1 t_1,20_ + 1 t_1,21_ + 1 t_1,22_ + 1 t_1,23_ + 1 t_1,24_ + 1 t_1,25_ + 1 t_1,26_ + 1 t_1,27_ + 1 t_1,28_ + 1 t_1,29_ + 1 t_1,30_ + 1 t_1,31_ + 1 t_1,32_ + 1 t_1,33_ + 1 t_1,34_ + 1 t_1,35_ + 1 t_1,36_ + 1 t_1,37_ + 1 t_1,38_ + 1 t_1,39_ + 1 t_1,40_ = 1
c3: -2 t_1,1_ - 1.8974358974358974 t_1,2_ - 1.7948717948717947 t_1,3_ - 1.6923076923076925 t_1,4_ - 1.5897435897435899 t_1,5_ - 1.4871794871794872 t_1,6_ - 1.3846153846153846 t_1,7_ - 1.282051282051282 t_1,8_ - 1.1794871794871797 t_1,9_ - 1.0769230769230766 t_1,10_ - 0.9743589743589745 t_1,11_ - 0.8717948717948718 t_1,12_ - 0.7692307692307692 t_1,13_ - 0.6666666666666669 t_1,14_ - 0.564102564102564 t_1,15_ - 0.46153846153846156 t_1,16_ - 0.35897435897435903 t_1,17_ - 0.2564102564102564 t_1,18_ - 0.15384615384615374 t_1,19_ - 0.05128205128205121 t_1,20_ + 0.0512820512820511 t_1,21_ + 0.15384615384615374 t_1,22_ + 0.2564102564102564 t_1,23_ + 0.35897435897435903 t_1,24_ + 0.4615384615384617 t_1,25_ + 0.5641025641025643 t_1,26_ + 0.6666666666666665 t_1,27_ + 0.7692307692307692 t_1,28_ + 0.8717948717948718 t_1,29_ + 0.9743589743589745 t_1,30_ + 1.076923076923077 t_1,31_ + 1.1794871794871793 t_1,32_ + 1.282051282051282 t_1,33_ + 1.3846153846153846 t_1,34_ + 1.4871794871794872 t_1,35_ + 1.5897435897435899 t_1,36_ + 1.6923076923076925 t_1,37_ + 1.7948717948717947 t_1,38_ + 1.8974358974358974 t_1,39_ + 2 t_1,40_ - 1 x_1_ = 0
c4: 1 y_2,1_ + 1 y_2,2_ + 1 y_2,3_ + 1 y_2,4_ + 1 y_2,5_ + 1 y_2,6_ + 1 y_2,7_ + 1 y_2,8_ + 1 y_2,9_ + 1 y_2,10_ + 1 y_2,11_ + 1 y_2,12_ + 1 y_2,13_ + 1 y_2,14_ + 1 y_2,15_ + 1 y_2,16_ + 1 y_2,17_ + 1 y_2,18_ + 1 y_2,19_ + 1 y_2,20_ + 1 y_2,21_ + 1 y_2,22_ + 1 y_2,23_ + 1 y_2,24_ + 1 y_2,25_ + 1 y_2,26_ + 1 y_2,27_ + 1 y_2,28_ + 1 y_2,29_ + 1 y_2,30_ + 1 y_2,31_ + 1 y_2,32_ + 1 y_2,33_ + 1 y_2,34_ + 1 y_2,35_ + 1 y_2,36_ + 1 y_2,37_ + 1 y_2,38_ + 1 y_2,39_ = 1
c5: 1 t_2,1_ + 1 t_2,2_ + 1 t_2,3_ + 1 t_2,4_ + 1 t_2,5_ + 1 t_2,6_ + 1 t_2,7_ + 1 t_2,8_ + 1 t_2,9_ + 1 t_2,10_ + 1 t_2,11_ + 1 t_2,12_ + 1 t_2,13_ + 1 t_2,14_ + 1 t_2,15_ + 1 t_2,16_ + 1 t_2,17_ + 1 t_2,18_ + 1 t_2,19_ + 1 t_2,20_ + 1 t_2,21_ + 1 t_2,22_ + 1 t_2,23_ + 1 t_2,24_ + 1 t_2,25_ + 1 t_2,26_ + 1 t_2,27_ + 1 t_2,28_ + 1 t_2,29_ + 1 t_2,30_ + 1 t_2,31_ + 1 t_2,32_ + 1 t_2,33_ + 1 t_2,34_ + 1 t_2,35_ + 1 t_2,36_ + 1 t_2,37_ + 1 t_2,38_ + 1 t_2,39_ + 1 t_2,40_ = 1
c6: -2 t_2,1_ - 1.8974358974358974 t_2,2_ - 1.7948717948717947 t_2,3_ - 1.6923076923076925 t_2,4_ - 1.5897435897435899 t_2,5_ - 1.4871794871794872 t_2,6_ - 1.3846153846153846 t_2,7_ - 1.282051282051282 t_2,8_ - 1.1794871794871797 t_2,9_ - 1.0769230769230766 t_2,10_ - 0.9743589743589745 t_2,11_ - 0.8717948717948718 t_2,12_ - 0.7692307692307692 t_2,13_ - 0.6666666666666669 t_2,14_ - 0.564102564102564 t_2,15_ - 0.46153846153846156 t_2,16_ - 0.35897435897435903 t_2,17_ - 0.2564102564102564 t_2,18_ - 0.15384615384615374 t_2,19_ - 0.05128205128205121 t_2,20_ + 0.0512820512820511 t_2,21_ + 0.15384615384615374 t_2,22_ + 0.2564102564102564 t_2,23_ + 0.35897435897435903 t_2,24_ + 0.4615384615384617 t_2,25_ + 0.5641025641025643 t_2,26_ + 0.6666666666666665 t_2,27_ + 0.7692307692307692 t_2,28_ + 0.8717948717948718 t_2,29_ + 0.9743589743589745 t_2,30_ + 1.076923076923077 t_2,31_ + 1.1794871794871793 t_2,32_ + 1.282051282051282 t_2,33_ + 1.3846153846153846 t_2,34_ + 1.4871794871794872 t_2,35_ + 1.5897435897435899 t_2,36_ + 1.6923076923076925 t_2,37_ + 1.7948717948717947 t_2,38_ + 1.8974358974358974 t_2,39_ + 2 t_2,40_ - 1 x_2_ = 0
c7: 1 y_3,1_ + 1 y_3,2_ + 1 y_3,3_ + 1 y_3,4_ + 1 y_3,5_ + 1 y_3,6_ + 1 y_3,7_ + 1 y_3,8_ + 1 y_3,9_ + 1 y_3,10_ + 1 y_3,11_ + 1 y_3,12_ + 1 y_3,13_ + 1 y_3,14_ + 1 y_3,15_ + 1 y_3,16_ + 1 y_3,17_ + 1 y_3,18_ + 1 y_3,19_ + 1 y_3,20_ + 1 y_3,21_ + 1 y_3,22_ + 1 y_3,23_ + 1 y_3,24_ + 1 y_3,25_ + 1 y_3,26_ + 1 y_3,27_ + 1 y_3,28_ + 1 y_3,29_ + 1 y_3,30_ + 1 y_3,31_ + 1 y_3,32_ + 1 y_3,33_ + 1 y_3,34_ + 1 y_3,35_ + 1 y_3,36_ + 1 y_3,37_ + 1 y_3,38_ + 1 y_3,39_ = 1
c8: 1 t_3,1_ + 1 t_3,2_ + 1 t_3,3_ + 1 t_3,4_ + 1 t_3,5_ + 1 t_3,6_ + 1 t_3,7_ + 1 t_3,8_ + 1 t_3,9_ + 1 t_3,10_ + 1 t_3,11_ + 1 t_3,12_ + 1 t_3,13_ + 1 t_3,14_ + 1 t_3,15_ + 1 t_3,16_ + 1 t_3,17_ + 1 t_3,18_ + 1 t_3,19_ + 1 t_3,20_ + 1 t_3,21_ + 1 t_3,22_ + 1 t_3,23_ + 1 t_3,24_ + 1 t_3,25_ + 1 t_3,26_ + 1 t_3,27_ + 1 t_3,28_ + 1 t_3,29_ + 1 t_3,30_ + 1 t_3,31_ + 1 t_3,32_ + 1 t_3,33_ + 1 t_3,34_ + 1 t_3,35_ + 1 t_3,36_ + 1 t_3,37_ + 1 t_3,38_ + 1 t_3,39_ + 1 t_3,40_ = 1
c9: -2 t_3,1_ - 1.8974358974358974 t_3,2_ - 1.7948717948717947 t_3,3_ - 1.6923076923076925 t_3,4_ - 1.5897435897435899 t_3,5_ - 1.4871794871794872 t_3,6_ - 1.3846153846153846 t_3,7_ - 1.282051282051282 t_3,8_ - 1.1794871794871797 t_3,9_ - 1.0769230769230766 t_3,10_ - 0.9743589743589745 t_3,11_ - 0.8717948717948718 t_3,12_ - 0.7692307692307692 t_3,13_ - 0.6666666666666669 t_3,14_ - 0.564102564102564 t_3,15_ - 0.46153846153846156 t_3,16_ - 0.35897435897435903 t_3,17_ - 0.2564102564102564 t_3,18_ - 0.15384615384615374 t_3,19_ - 0.05128205128205121 t_3,20_ + 0.0512820512820511 t_3,21_ + 0.15384615384615374 t_3,22_ + 0.2564102564102564 t_3,23_ + 0.35897435897435903 t_3,24_ + 0.4615384615384617 t_3,25_ + 0.5641025641025643 t_3,26_ + 0.6666666666666665 t_3,27_ + 0.7692307692307692 t_3,28_ + 0.8717948717948718 t_3,29_ + 0.9743589743589745 t_3,30_ + 1.076923076923077 t_3,31_ + 1.1794871794871793 t_3,32_ + 1.282051282051282 t_3,33_ + 1.3846153846153846 t_3,34_ + 1.4871794871794872 t_3,35_ + 1.5897435897435899 t_3,36_ + 1.6923076923076925 t_3,37_ + 1.7948717948717947 t_3,38_ + 1.8974358974358974 t_3,39_ + 2 t_3,40_ - 1 x_3_ = 0
c10: 1 y_4,1_ + 1 y_4,2_ + 1 y_4,3_ + 1 y_4,4_ + 1 y_4,5_ + 1 y_4,6_ + 1 y_4,7_ + 1 y_4,8_ + 1 y_4,9_ + 1 y_4,10_ + 1 y_4,11_ + 1 y_4,12_ + 1 y_4,13_ + 1 y_4,14_ + 1 y_4,15_ + 1 y_4,16_ + 1 y_4,17_ + 1 y_4,18_ + 1 y_4,19_ + 1 y_4,20_ + 1 y_4,21_ + 1 y_4,22_ + 1 y_4,23_ + 1 y_4,24_ + 1 y_4,25_ + 1 y_4,26_ + 1 y_4,27_ + 1 y_4,28_ + 1 y_4,29_ + 1 y_4,30_ + 1 y_4,31_ + 1 y_4,32_ + 1 y_4,33_ + 1 y_4,34_ + 1 y_4,35_ + 1 y_4,36_ + 1 y_4,37_ + 1 y_4,38_ + 1 y_4,39_ = 1
c11: 1 t_4,1_ + 1 t_4,2_ + 1 t_4,3_ + 1 t_4,4_ + 1 t_4,5_ + 1 t_4,6_ + 1 t_4,7_ + 1 t_4,8_ + 1 t_4,9_ + 1 t_4,10_ + 1 t_4,11_ + 1 t_4,12_ + 1 t_4,13_ + 1 t_4,14_ + 1 t_4,15_ + 1 t_4,16_ + 1 t_4,17_ + 1 t_4,18_ + 1 t_4,19_ + 1 t_4,20_ + 1 t_4,21_ + 1 t_4,22_ + 1 t_4,23_ + 1 t_4,24_ + 1 t_4,25_ + 1 t_4,26_ + 1 t_4,27_ + 1 t_4,28_ + 1 t_4,29_ + 1 t_4,30_ + 1 t_4,31_ + 1 t_4,32_ + 1 t_4,33_ + 1 t_4,34_ + 1 t_4,35_ + 1 t_4,36_ + 1 t_4,37_ + 1 t_4,38_ + 1 t_4,39_ + 1 t_4,40_ = 1
c12: -2 t_4,1_ - 1.8974358974358974 t_4,2_ - 1.7948717948717947 t_4,3_ - 1.6923076923076925 t_4,4_ - 1.5897435897435899 t_4,5_ - 1.4871794871794872 t_4,6_ - 1.3846153846153846 t_4,7_ - 1.282051282051282 t_4,8_ - 1.1794871794871797 t_4,9_ - 1.0769230769230766 t_4,10_ - 0.9743589743589745 t_4,11_ - 0.8717948717948718 t_4,12_ - 0.7692307692307692 t_4,13_ - 0.6666666666666669 t_4,14_ - 0.564102564102564 t_4,15_ - 0.46153846153846156 t_4,16_ - 0.35897435897435903 t_4,17_ - 0.2564102564102564 t_4,18_ - 0.15384615384615374 t_4,19_ - 0.05128205128205121 t_4,20_ + 0.0512820512820511 t_4,21_ + 0.15384615384615374 t_4,22_ + 0.2564102564102564 t_4,23_ + 0.35897435897435903 t_4,24_ + 0.4615384615384617 t_4,25_ + 0.5641025641025643 t_4,26_ + 0.6666666666666665 t_4,27_ + 0.7692307692307692 t_4,28_ + 0.8717948717948718 t_4,29_ + 0.9743589743589745 t_4,30_ + 1.076923076923077 t_4,31_ + 1.1794871794871793 t_4,32_ + 1.282051282051282 t_4,33_ + 1.3846153846153846 t_4,34_ + 1.4871794871794872 t_4,35_ + 1.5897435897435899 t_4,36_ + 1.6923076923076925 t_4,37_ + 1.7948717948717947 t_4,38_ + 1.8974358974358974 t_4,39_ + 2 t_4,40_ - 1 x_4_ = 0
Bounds
x_1_ <= 2
x_2_ <= 2
x_3_ <= 2
x_4_ <= 2
t_1,1_ >= 0
t_2,1_ >= 0
t_3,1_ >= 0
t_4,1_ >= 0
t_1,2_ >= 0
t_2,2_ >= 0
t_3,2_ >= 0
t_4,2_ >= 0
t_1,3_ >= 0
t_2,3_ >= 0
t_3,3_ >= 0
t_4,3_ >= 0
t_1,4_ >= 0
t_2,4_ >= 0
t_3,4_ >= 0
t_4,4_ >= 0
t_1,5_ >= 0
t_2,5_ >= 0
t_3,5_ >= 0
t_4,5_ >= 0
t_1,6_ >= 0
t_2,6_ >= 0
t_3,6_ >= 0
t_4,6_ >= 0
t_1,7_ >= 0
t_2,7_ >= 0
t_3,7_ >= 0
t_4,7_ >= 0
t_1,8_ >= 0
t_2,8_ >= 0
t_3,8_ >= 0
t_4,8_ >= 0
t_1,9_ >= 0
t_2,9_ >= 0
t_3,9_ >= 0
t_4,9_ >= 0
t_1,10_ >= 0
t_2,10_ >= 0
t_3,10_ >= 0
t_4,10_ >= 0
t_1,11_ >= 0
t_2,11_ >= 0
t_3,11_ >= 0
t_4,11_ >= 0
t_1,12_ >= 0
t_2,12_ >= 0
t_3,12_ >= 0
t_4,12_ >= 0
t_1,13_ >= 0
t_2,13_ >= 0
t_3,13_ >= 0
t_4,13_ >= 0
t_1,14_ >= 0
t_2,14_ >= 0
t_3,14_ >= 0
t_4,14_ >= 0
t_1,15_ >= 0
t_2,15_ >= 0
t_3,15_ >= 0
t_4,15_ >= 0
t_1,16_ >= 0
t_2,16_ >= 0
t_3,16_ >= 0
t_4,16_ >= 0
t_1,17_ >= 0
t_2,17_ >= 0
t_3,17_ >= 0
t_4,17_ >= 0
t_1,18_ >= 0
t_2,18_ >= 0
t_3,18_ >= 0
t_4,18_ >= 0
t_1,19_ >= 0
t_2,19_ >= 0
t_3,19_ >= 0
t_4,19_ >= 0
t_1,20_ >= 0
t_2,20_ >= 0
t_3,20_ >= 0
t_4,20_ >= 0
t_1,21_ >= 0
t_2,21_ >= 0
t_3,21_ >= 0
t_4,21_ >= 0
t_1,22_ >= 0
t_2,22_ >= 0
t_3,22_ >= 0
t_4,22_ >= 0
t_1,23_ >= 0
t_2,23_ >= 0
t_3,23_ >= 0
t_4,23_ >= 0
t_1,24_ >= 0
t_2,24_ >= 0
t_3,24_ >= 0
t_4,24_ >= 0
t_1,25_ >= 0
t_2,25_ >= 0
t_3,25_ >= 0
t_4,25_ >= 0
t_1,26_ >= 0
t_2,26_ >= 0
t_3,26_ >= 0
t_4,26_ >= 0
t_1,27_ >= 0
t_2,27_ >= 0
t_3,27_ >= 0
t_4,27_ >= 0
t_1,28_ >= 0
t_2,28_ >= 0
t_3,28_ >= 0
t_4,28_ >= 0
t_1,29_ >= 0
t_2,29_ >= 0
t_3,29_ >= 0
t_4,29_ >= 0
t_1,30_ >= 0
t_2,30_ >= 0
t_3,30_ >= 0
t_4,30_ >= 0
t_1,31_ >= 0
t_2,31_ >= 0
t_3,31_ >= 0
t_4,31_ >= 0
t_1,32_ >= 0
t_2,32_ >= 0
t_3,32_ >= 0
t_4,32_ >= 0
t_1,33_ >= 0
t_2,33_ >= 0
t_3,33_ >= 0
t_4,33_ >= 0
t_1,34_ >= 0
t_2,34_ >= 0
t_3,34_ >= 0
t_4,34_ >= 0
t_1,35_ >= 0
t_2,35_ >= 0
t_3,35_ >= 0
t_4,35_ >= 0
t_1,36_ >= 0
t_2,36_ >= 0
t_3,36_ >= 0
t_4,36_ >= 0
t_1,37_ >= 0
t_2,37_ >= 0
t_3,37_ >= 0
t_4,37_ >= 0
t_1,38_ >= 0
t_2,38_ >= 0
t_3,38_ >= 0
t_4,38_ >= 0
t_1,39_ >= 0
t_2,39_ >= 0
t_3,39_ >= 0
t_4,39_ >= 0
t_1,40_ >= 0
t_2,40_ >= 0
t_3,40_ >= 0
t_4,40_ >= 0
x_1_ >= -2
x_2_ >= -2
x_3_ >= -2
x_4_ >= -2
Binary
y_1,1_
y_2,1_
y_3,1_
y_4,1_
y_1,2_
y_2,2_
y_3,2_
y_4,2_
y_1,3_
y_2,3_
y_3,3_
y_4,3_
y_1,4_
y_2,4_
y_3,4_
y_4,4_
y_1,5_
y_2,5_
y_3,5_
y_4,5_
y_1,6_
y_2,6_
y_3,6_
y_4,6_
y_1,7_
y_2,7_
y_3,7_
y_4,7_
y_1,8_
y_2,8_
y_3,8_
y_4,8_
y_1,9_
y_2,9_
y_3,9_
y_4,9_
y_1,10_
y_2,10_
y_3,10_
y_4,10_
y_1,11_
y_2,11_
y_3,11_
y_4,11_
y_1,12_
y_2,12_
y_3,12_
y_4,12_
y_1,13_
y_2,13_
y_3,13_
y_4,13_
y_1,14_
y_2,14_
y_3,14_
y_4,14_
y_1,15_
y_2,15_
y_3,15_
y_4,15_
y_1,16_
y_2,16_
y_3,16_
y_4,16_
y_1,17_
y_2,17_
y_3,17_
y_4,17_
y_1,18_
y_2,18_
y_3,18_
y_4,18_
y_1,19_
y_2,19_
y_3,19_
y_4,19_
y_1,20_
y_2,20_
y_3,20_
y_4,20_
y_1,21_
y_2,21_
y_3,21_
y_4,21_
y_1,22_
y_2,22_
y_3,22_
y_4,22_
y_1,23_
y_2,23_
y_3,23_
y_4,23_
y_1,24_
y_2,24_
y_3,24_
y_4,24_
y_1,25_
y_2,25_
y_3,25_
y_4,25_
y_1,26_
y_2,26_
y_3,26_
y_4,26_
y_1,27_
y_2,27_
y_3,27_
y_4,27_
y_1,28_
y_2,28_
y_3,28_
y_4,28_
y_1,29_
y_2,29_
y_3,29_
y_4,29_
y_1,30_
y_2,30_
y_3,30_
y_4,30_
y_1,31_
y_2,31_
y_3,31_
y_4,31_
y_1,32_
y_2,32_
y_3,32_
y_4,32_
y_1,33_
y_2,33_
y_3,33_
y_4,33_
y_1,34_
y_2,34_
y_3,34_
y_4,34_
y_1,35_
y_2,35_
y_3,35_
y_4,35_
y_1,36_
y_2,36_
y_3,36_
y_4,36_
y_1,37_
y_2,37_
y_3,37_
y_4,37_
y_1,38_
y_2,38_
y_3,38_
y_4,38_
y_1,39_
y_2,39_
y_3,39_
y_4,39_
End
