res_glpk/log/4_39.log
GLPSOL--GLPK LP/MIP Solver 5.0
Parameter(s) specified in the command line:
 --lp ../modeles/4_39.lp --log 4_39.log
Reading problem data from '../modeles/4_39.lp'...
173 rows, 320 columns, 1112 non-zeros
156 integer variables, all of which are binary
503 lines were read
GLPK Integer Optimizer 5.0
173 rows, 320 columns, 1112 non-zeros
156 integer variables, all of which are binary
Preprocessing...
152 constraint coefficient(s) were reduced
173 rows, 316 columns, 1108 non-zeros
156 integer variables, all of which are binary
Scaling...
 A: min|aij| =  2.630e-03  max|aij| =  4.000e+00  ratio =  1.521e+03
GM: min|aij| =  1.601e-01  max|aij| =  6.245e+00  ratio =  3.900e+01
EQ: min|aij| =  2.564e-02  max|aij| =  1.000e+00  ratio =  3.900e+01
2N: min|aij| =  2.104e-02  max|aij| =  1.583e+00  ratio =  7.523e+01
Constructing initial basis...
Size of triangular part is 173
Solving LP relaxation...
GLPK Simplex Optimizer 5.0
173 rows, 316 columns, 1108 non-zeros
      0: obj =   8.000000000e+00 inf =   1.950e+01 (9)
     35: obj =   4.950657895e-01 inf =   0.000e+00 (0)
*    89: obj =  -1.990384615e+00 inf =   4.346e-16 (0)
OPTIMAL LP SOLUTION FOUND
Integer optimization begins...
Long-step dual simplex will be used
+    89: mip =     not found yet >=              -inf        (1; 0)
+   151: >>>>>  -1.990384615e+00 >=  -1.990384615e+00   0.0% (61; 0)
+   151: mip =  -1.990384615e+00 >=     tree is empty   0.0% (0; 121)
INTEGER OPTIMAL SOLUTION FOUND
Time used:   0.0 secs
Memory used: 0.5 Mb (528414 bytes)
